
Flow cuts applied:  3
Mixed integer rounding cuts applied:  1
Gomory fractional cuts applied:  2
User cuts applied:  241

Root node processing (before b&c):
  Real time             =    0.24 sec. (21.09 ticks)
Sequential b&c:
  Real time             =    0.01 sec. (10.57 ticks)
                          ------------
Total (root+branch&cut) =    0.26 sec. (31.66 ticks)
#SOLVERNAME# PAJ_CPLEX_msd_sep
#SOLVER# Pajarito.PajaritoSolver(3, 3600.0, 1.0e-5, true, CPLEX.CplexSolver(Any[(:CPX_PARAM_THREADS, 1), (:CPX_PARAM_SCRIND, 1), (:CPX_PARAM_EPINT, 1.0e-9), (:CPX_PARAM_EPRHS, 1.0e-8), (:CPX_PARAM_EPGAP, 1.0e-5)]), Pajarito.UnsetSolver(), 0, false, true, Pajarito.UnsetSolver(), false, false, false, false, true, false, false, true, false, true, true, true, true, false, true, 10.0, true, true, false, true, 1.0e-12, 1.0e-8, false, "")
#INSTANCE# estein4_A.cbf.gz
#TIMELIMIT# 3600.0

Problem dimensions:
       variables |      67
     constraints |     108
   nonzeros in A |     128

Cones summary:
Cone             | Count   | Min dim.  | Max dim. 
    Second order |       9 |         3 |         3

Variable types:
      continuous |      58
         integer |       9

Transforming data...               0.00s

Building MIP model...              0.00s
Warning: Control callbacks may disable some MIP features.
Tried aggregator 2 times.
MIP Presolve eliminated 79 rows and 12 columns.
Aggregator did 20 substitutions.
Reduced MIP has 99 rows, 53 columns, and 297 nonzeros.
Reduced MIP has 4 binaries, 0 generals, 0 SOSs, and 0 indicators.
Presolve time = 0.00 sec. (0.29 ticks)
Probing fixed 0 vars, tightened 8 bounds.
Probing time = 0.00 sec. (0.02 ticks)
MIP emphasis: balance optimality and feasibility.
MIP search method: traditional branch-and-cut.
Parallel mode: none, using 1 thread.
Root relaxation solution time = 0.00 sec. (0.21 ticks)

        Nodes                                         Cuts/
   Node  Left     Objective  IInf  Best Integer    Best Bound    ItCnt     Gap

      0     0        0.0000     4                      0.0000       38         
*     0+    0                            0.9266        0.0000           100.00%
      0     0        0.1640     4        0.9266      Cuts: 11       77   82.30%
*     0+    0                            0.8014        0.1640            79.53%
      0     0        0.2602     4        0.8014       Cuts: 2       94   67.53%
      0     0        0.2740     4        0.8014       Cuts: 2      106   65.80%
      0     2        0.2740     4        0.8014        0.2794      106   65.14%
Elapsed time = 0.03 sec. (21.09 ticks, tree = 0.01 MB, solutions = 2)
*     5     4      integral     0        0.8014        0.4485      251   44.03%
*    13     4      integral     0        0.8014        0.4781      410   40.35%

Starting MIP-solver-driven algorithm

MIP-solver-driven algorithm summary:
 - Status               =        Optimal
 - Best feasible        =  +8.013640e-01
 - Best bound           =  +8.013655e-01
 - Relative opt. gap    =     -1.808e-06
 - Total time (s)       =       3.79e-02

Timers (s):
 - Setup                =   4.03e-04
 -- Transform data      =   7.92e-05
 -- Create conic data   =   0.00e+00
 -- Create MIP data     =   3.24e-04
 - Algorithm            =   3.75e-02
 -- Solve relaxation    =   0.00e+00
 -- Get relaxation cuts =   0.00e+00
 -- MIP solver driving  =   3.73e-02
 -- Solve subproblems   =   0.00e+00
 -- Get subproblem cuts =   0.00e+00
 -- Get separation cuts =   1.52e-03

Counters:
 - Lazy callbacks       =    37
 -- Integer repeats     =     0
 -- Conic subproblems   =     0
 -- Feasible solutions  =    17
 --- From subproblems   =     0
 --- In lazy callback   =    17
 - Heuristic callbacks  =     0
 -- Solutions passed    =     0

Solution returned by MIP solver

Rounds of full separation/subproblem cuts, and count of cuts added:
Cone             | Subp.  | Sep.   | Total  | Relax. | Viol. 
    Second order |      0 |    144 |    243 |      0 |    243

0 numerically unstable disaggregated SOC cuts

Distance to feasibility (negative indicates strict feasibility):
Cone             | Variable  | Constraint
          Linear |  0.00e+00 |  1.11e-16
    Second order |  9.03e-07 |        NA

Distance to integrality of integer/binary variables:
         integer |  0.00e+00

#STATUS# Optimal
#OBJVAL# 0.801364020702971
#OBJBOUND# 0.8013654692149532
#NODECOUNT# 23
#TIMESOLVER# 0.037869930267333984
#TIMEALL# 0.038224220275878906
#SOLUTION# [0.6602629270390159,0.3831473664866807,0.4180704025465536,0.49757193890457374,0.19252546754784627,0.15812607296098408,0.10982963351331934,0.493351,0.40031859745344645,-0.004594938904573728,0.493351,-0.25426292703901593,0.26325463351331935,0.14931863598488848,-0.01207040254655356,0.1488300610954263,0.08264993921231852,0.00704907296098406,-0.08234936648668065,0.493351,0.24924159745344643,-0.19677393890457373,0.493351,-0.33187692703901595,0.05246063351331934,0.10900779890322408,-0.08968440254655358,-0.06196393890457373,0.26786217905469367,0.2421925244924624,-0.11442457241789307,0.19252546754784627,0.0,0.0,0.14931863598488848,0.08264993921231852,0.0,0.0,0.10900779890322408,0.26786217905469367,1.0,0.0,0.0,1.0,1.0,0.0,0.0,1.0,1.0,0.0,1.0,1.0,0.0,0.0,1.0,1.0,0.0,0.0,0.3008255324521537,-0.0,0.0,0.3440323640151115,0.4107010607876815,-0.0,0.0,0.3843432010967759,0.2254888209453063]

Flow cuts applied:  3
Mixed integer rounding cuts applied:  1
Gomory fractional cuts applied:  2
User cuts applied:  241

Root node processing (before b&c):
  Real time             =    0.03 sec. (21.09 ticks)
Sequential b&c:
  Real time             =    0.01 sec. (10.57 ticks)
                          ------------
Total (root+branch&cut) =    0.04 sec. (31.66 ticks)
